p edge 10 45
e 1 2 -253.0
e 1 3 -913.0
e 1 4 148.0
e 1 5 -819.0
e 1 6 168.0
e 1 7 -165.0
e 1 8 363.0
e 1 9 -958.0
e 1 10 226.0
e 2 3 906.0
e 2 4 -468.0
e 2 5 112.0
e 2 6 -463.0
e 2 7 813.0
e 2 8 -599.0
e 2 9 -251.0
e 2 10 28.0
e 3 4 467.0
e 3 5 -798.0
e 3 6 840.0
e 3 7 -552.0
e 3 8 563.0
e 3 9 -781.0
e 3 10 517.0
e 4 5 -815.0
e 4 6 978.0
e 4 7 -959.0
e 4 8 -106.0
e 4 9 232.0
e 4 10 -129.0
e 5 6 -976.0
e 5 7 53.0
e 5 8 516.0
e 5 9 423.0
e 5 10 265.0
e 6 7 343.0
e 6 8 -827.0
e 6 9 951.0
e 6 10 -33.0
e 7 8 958.0
e 7 9 187.0
e 7 10 -889.0
e 8 9 -306.0
e 8 10 551.0
e 9 10 -855.0
